words_hard_train/3041.qaiger
aag 102 16 0 1 86
2
4
8
18
24
34
46
82
86
102
116
124
138
142
146
172
205
6 2 4
10 6 9
12 5 8
14 3 5
16 13 15
20 16 19
22 11 21
26 9 24
28 23 27
30 8 25
32 29 31
36 19 35
38 18 34
40 37 39
42 33 40
44 43 39
48 34 47
50 35 46
52 49 51
54 52 25
56 53 24
58 55 57
60 44 59
62 45 58
64 61 63
66 10 18
68 66 25
70 32 41
72 71 43
74 68 73
76 64 75
78 65 74
80 77 79
84 80 82
88 50 86
90 51 87
92 89 91
94 63 57
96 93 94
98 92 95
100 97 99
104 101 103
106 85 105
108 27 31
110 108 21
112 109 20
114 111 113
118 115 117
120 17 18
122 121 21
126 122 125
128 119 127
130 3 8
132 131 17
134 4 9
136 133 135
140 137 139
144 15 142
148 145 147
150 149 7
152 143 5
154 150 153
156 141 154
158 136 138
160 157 159
162 123 124
164 160 163
166 128 165
168 114 116
170 167 169
174 171 172
176 69 72
178 177 75
180 175 179
182 81 83
184 181 183
186 170 173
188 184 187
190 106 189
192 190 79
194 188 78
196 104 194
198 193 197
200 100 102
202 200 195
204 198 203
i0 2 y1[0]
i1 2 y1[1]
i2 2 y1[2]
i3 2 y1[3]
i4 2 y1[4]
i5 2 y1[5]
i6 2 y1[6]
i7 1 x1[6]
i8 2 y1[7]
i9 1 x1[7]
i10 1 x1[4]
i11 1 x1[3]
i12 1 x1[2]
i13 1 x1[1]
i14 1 x1[0]
i15 1 x1[5]
o0 bv[0]
c
simplified
  <
    1 x1
    subtract
      << 2
        2 y1
      subtract
        2 y1
        -97
