words_hard_train/3041.qaiger.qdimacs
p cnf 102 259
a 69 71 41 73 51 86 58 62 0
e 1 2 3 4 5 6 7 8 9 10 11 12 13 14 15 16 17 18 19 20 21 22 23 24 25 26 27 28 29 30 31 32 33 34 35 36 37 38 39 40 42 43 44 45 46 47 48 49 50 52 53 54 55 56 57 59 60 61 63 64 65 66 67 68 70 72 74 75 76 77 78 79 80 81 82 83 84 85 87 88 89 90 91 92 93 94 95 96 97 98 99 100 101 102 0
-1 -2 3 0
1 -3 0
2 -3 0
-3 4 5 0
3 -5 0
-4 -5 0
2 -4 6 0
-2 -6 0
4 -6 0
1 2 7 0
-1 -7 0
-2 -7 0
6 7 8 0
-6 -8 0
-7 -8 0
-8 9 10 0
8 -10 0
-9 -10 0
5 10 11 0
-5 -11 0
-10 -11 0
4 -12 13 0
-4 -13 0
12 -13 0
11 13 14 0
-11 -14 0
-13 -14 0
-4 12 15 0
4 -15 0
-12 -15 0
14 15 16 0
-14 -16 0
-15 -16 0
9 17 18 0
-9 -18 0
-17 -18 0
-9 -17 19 0
9 -19 0
17 -19 0
18 19 20 0
-18 -20 0
-19 -20 0
16 -20 21 0
-16 -21 0
20 -21 0
21 19 22 0
-21 -22 0
-19 -22 0
-17 23 24 0
17 -24 0
-23 -24 0
17 -23 25 0
-17 -25 0
23 -25 0
24 25 26 0
-24 -26 0
-25 -26 0
-26 12 27 0
26 -27 0
-12 -27 0
26 -12 28 0
-26 -28 0
12 -28 0
27 28 29 0
-27 -29 0
-28 -29 0
-22 29 30 0
22 -30 0
-29 -30 0
22 -29 31 0
-22 -31 0
29 -31 0
30 31 32 0
-30 -32 0
-31 -32 0
-5 -9 33 0
5 -33 0
9 -33 0
-33 12 34 0
33 -34 0
-12 -34 0
-16 20 35 0
16 -35 0
-20 -35 0
35 21 36 0
-35 -36 0
-21 -36 0
-34 36 37 0
34 -37 0
-36 -37 0
-32 37 38 0
32 -38 0
-37 -38 0
32 -37 39 0
-32 -39 0
37 -39 0
38 39 40 0
-38 -40 0
-39 -40 0
-40 -41 42 0
40 -42 0
41 -42 0
-25 -43 44 0
25 -44 0
43 -44 0
25 43 45 0
-25 -45 0
-43 -45 0
44 45 46 0
-44 -46 0
-45 -46 0
31 28 47 0
-31 -47 0
-28 -47 0
46 -47 48 0
-46 -48 0
47 -48 0
-46 47 49 0
46 -49 0
-47 -49 0
48 49 50 0
-48 -50 0
-49 -50 0
50 51 52 0
-50 -52 0
-51 -52 0
42 52 53 0
-42 -53 0
-52 -53 0
13 15 54 0
-13 -54 0
-15 -54 0
-54 10 55 0
54 -55 0
-10 -55 0
54 -10 56 0
-54 -56 0
10 -56 0
55 56 57 0
-55 -57 0
-56 -57 0
57 58 59 0
-57 -59 0
-58 -59 0
8 -9 60 0
-8 -60 0
9 -60 0
60 10 61 0
-60 -61 0
-10 -61 0
-61 62 63 0
61 -63 0
-62 -63 0
59 63 64 0
-59 -64 0
-63 -64 0
1 -4 65 0
-1 -65 0
4 -65 0
65 8 66 0
-65 -66 0
-8 -66 0
-2 4 67 0
2 -67 0
-4 -67 0
66 67 68 0
-66 -68 0
-67 -68 0
68 69 70 0
-68 -70 0
-69 -70 0
7 -71 72 0
-7 -72 0
71 -72 0
72 73 74 0
-72 -74 0
-73 -74 0
74 3 75 0
-74 -75 0
-3 -75 0
71 2 76 0
-71 -76 0
-2 -76 0
-75 76 77 0
75 -77 0
-76 -77 0
70 -77 78 0
-70 -78 0
77 -78 0
-68 -69 79 0
68 -79 0
69 -79 0
78 79 80 0
-78 -80 0
-79 -80 0
61 -62 81 0
-61 -81 0
62 -81 0
-80 81 82 0
80 -82 0
-81 -82 0
-64 82 83 0
64 -83 0
-82 -83 0
-57 -58 84 0
57 -84 0
58 -84 0
83 84 85 0
-83 -85 0
-84 -85 0
85 -86 87 0
-85 -87 0
86 -87 0
34 -36 88 0
-34 -88 0
36 -88 0
88 37 89 0
-88 -89 0
-37 -89 0
87 89 90 0
-87 -90 0
-89 -90 0
40 41 91 0
-40 -91 0
-41 -91 0
90 91 92 0
-90 -92 0
-91 -92 0
-85 86 93 0
85 -93 0
-86 -93 0
-92 93 94 0
92 -94 0
-93 -94 0
-53 94 95 0
53 -95 0
-94 -95 0
-95 39 96 0
95 -96 0
-39 -96 0
-94 -39 97 0
94 -97 0
39 -97 0
-52 -97 98 0
52 -98 0
97 -98 0
96 98 99 0
-96 -99 0
-98 -99 0
-50 -51 100 0
50 -100 0
51 -100 0
-100 97 101 0
100 -101 0
-97 -101 0
-99 101 102 0
99 -102 0
-101 -102 0
-102 0
